7120
1 1 0 1 0 1 0 0 1 1 0 0 1 1 0 0 0 0 0 0 
0 0 0 0 0 0 0 13 13 1 1 1 1 1 1 3 3 3 3 3 3 12 12 12 8 12 12 12 3 5 5 5 5 5 5 5 5 5 0 0 3 3 8 3 1 5 13 3 13 5 3 13 8 13 13 5 5 1 9 9 3 9 0 13 13 13 8 12 9 9 13 3 13 8 8 8 8 13 9 13 
